100
128
3
29
39
24
19
1
40
24
64
63
6
46
43
23
15
52
45
15
30
31
9
11
28
27
37
24
12
27
35
15
24
27
57
1
30
40
2
50
28
28
27
48
20
33
36
28
64
2
19
53
22
30
60
39
50
28
50
59
26
40
32
61
55
32
41
42
6
27
25
32
35
27
36
45
54
5
30
36
61
28
63
27
38
46
52
28
29
27
64
63
54
28
24
23
23
22
63
61
63
64